1 -332 -335 0
-332 -334 -335 0
-17 332 -335 0
16 -333 -13 -335 0
1 92 -13 17 0
-334 -335 0
d -332 -334 -335 0
332 -335 0
d -17 332 -335 0
-335 0
16 -17 0
-17 -332 0
d -13 -17 -332 0
-332 0
17 0
16 0
-1 0
-316 0
-317 0
320 0
0
